
******************************************************************************
This program contains Ipopt, a library for large-scale nonlinear optimization.
 Ipopt is released as open source code under the Eclipse Public License (EPL).
         For more information visit http://projects.coin-or.org/Ipopt
******************************************************************************

This is Ipopt version 3.12.6, running with linear solver ma57.

Number of nonzeros in equality constraint Jacobian...:        0
Number of nonzeros in inequality constraint Jacobian.:    29994
Number of nonzeros in Lagrangian Hessian.............:    15000

Total number of variables............................:    10000
                     variables with only lower bounds:        0
                variables with lower and upper bounds:        0
                     variables with only upper bounds:        0
Total number of equality constraints.................:        0
Total number of inequality constraints...............:     9998
        inequality constraints with only lower bounds:        0
   inequality constraints with lower and upper bounds:        0
        inequality constraints with only upper bounds:     9998

iter    objective    inf_pr   inf_du lg(mu)  ||d||  lg(rg) alpha_du alpha_pr  ls
   0  1.0000000e+04 5.00e+00 4.30e+00  -1.0 0.00e+00    -  0.00e+00 0.00e+00   0
   1  8.3204077e+03 7.28e+00 4.12e+01  -1.0 7.07e+00    -  1.28e-01 1.00e+00F  1
   2  8.6224107e+03 7.25e+00 4.01e+01  -1.0 6.59e+00   0.0 2.39e-01 2.58e-02h  1
   3  8.7237913e+03 7.20e+00 4.29e+01  -1.0 1.99e+01   0.4 2.15e-01 8.24e-03h  1
   4  1.0191063e+04 6.22e+00 3.69e+01  -1.0 2.14e+01  -0.1 2.47e-02 1.31e-01h  1
   5  1.1153809e+04 5.57e+00 2.97e+01  -1.0 6.78e+00   0.4 3.19e-01 9.31e-02h  1
   6  1.3241763e+04 2.03e+00 4.82e+03  -1.0 4.34e+01  -0.1 1.61e-03 1.84e-01h  2
   7  1.7226061e+04 4.56e-01 2.28e+03  -1.0 4.76e+00   0.3 9.69e-01 5.84e-01h  1
   8  1.9150983e+04 8.40e-02 1.42e+04  -1.0 8.10e+00   2.6 2.56e-03 6.75e-01h  1
   9  1.9155716e+04 8.31e-02 1.41e+04  -1.0 6.58e+00   2.1 6.39e-01 6.00e-03h  1
iter    objective    inf_pr   inf_du lg(mu)  ||d||  lg(rg) alpha_du alpha_pr  ls
  10  1.9360102e+04 4.09e-02 1.07e+04  -1.0 3.90e+00   1.6 1.88e-01 2.46e-01h  1
  11  1.9445583e+04 1.48e-02 8.79e+03  -1.0 3.54e+00   1.1 1.00e+00 1.82e-01h  1
  12  1.9441609e+04 0.00e+00 7.84e+03  -1.0 3.21e+00   0.6 1.00e+00 1.09e-01f  1
  13  1.8189190e+04 0.00e+00 1.25e+03  -1.0 7.64e+00   0.2 1.00e+00 1.00e+00f  1
  14  1.8182027e+04 0.00e+00 1.23e+03  -1.0 3.84e+01   0.6 1.00e+00 1.52e-02f  1
  15  1.8152236e+04 0.00e+00 1.20e+03  -1.0 4.06e+01   0.1 1.00e+00 2.43e-02f  1
  16  1.7639460e+04 0.00e+00 1.51e+02  -1.0 1.42e+00   0.5 7.95e-01 1.00e+00f  1
  17  1.6871418e+04 0.00e+00 6.77e+01  -1.0 1.05e+01   0.1 3.67e-02 7.52e-01f  1
  18  1.6870029e+04 0.00e+00 1.62e+02  -1.0 4.44e+00   2.3 2.86e-01 9.06e-02f  1
  19  1.6870022e+04 0.00e+00 1.91e+02  -1.0 1.49e+01   1.8 1.17e-02 1.14e-03h  1
iter    objective    inf_pr   inf_du lg(mu)  ||d||  lg(rg) alpha_du alpha_pr  ls
  20  1.6855202e+04 0.00e+00 2.54e+03  -1.0 2.25e+00   2.2 1.00e+00 6.70e-01f  1
  21  1.6841818e+04 0.00e+00 1.05e+03  -1.0 1.36e+00   1.8 4.98e-01 6.38e-01f  1
  22  1.6851074e+04 0.00e+00 4.45e+03  -1.0 2.05e+00   2.2 8.09e-01 9.19e-01h  1
  23  1.6851214e+04 0.00e+00 4.41e+03  -1.0 7.40e+00   1.7 4.52e-01 8.47e-03h  1
  24  1.6860780e+04 0.00e+00 3.11e+03  -1.0 2.59e+01   1.2 9.15e-01 1.50e-01h  3
  25  1.6861535e+04 0.00e+00 4.23e+03  -1.0 1.50e+03   1.7 5.17e-03 5.94e-05h  8
  26  1.6892892e+04 0.00e+00 9.10e+03  -1.0 1.73e+01   2.1 1.00e+00 1.33e-01h  3
  27  1.6883851e+04 0.00e+00 4.56e+04  -1.0 1.85e+01   4.3 5.48e-03 2.23e-02f  5
  28  1.6821785e+04 0.00e+00 7.90e+05  -1.0 9.99e+00   3.9 3.27e-04 5.97e-01f  1
  29  1.6821410e+04 0.00e+00 7.52e+05  -1.0 2.76e+00   4.3 1.19e-01 4.86e-02h  1
iter    objective    inf_pr   inf_du lg(mu)  ||d||  lg(rg) alpha_du alpha_pr  ls
  30  1.6821406e+04 0.00e+00 7.52e+05  -1.0 2.62e+00   3.8 3.13e-01 3.96e-04h  1
  31  1.6817491e+04 0.00e+00 1.18e+05  -1.0 2.68e+00   4.2 3.76e-01 1.00e+00f  1
  32  1.6816953e+04 0.00e+00 1.97e+03  -1.0 5.09e-02   3.7 1.00e+00 1.00e+00f  1
  33  1.6816305e+04 0.00e+00 4.43e+00  -1.0 2.37e-03   3.3 1.00e+00 1.00e+00f  1
  34  1.6814420e+04 0.00e+00 6.53e+00  -1.0 1.05e-02   2.8 1.00e+00 1.00e+00f  1
  35  1.6808611e+04 0.00e+00 3.83e+00  -1.0 1.84e-02   2.3 1.00e+00 1.00e+00f  1
  36  1.6791326e+04 0.00e+00 2.91e+00  -1.0 4.14e-02   1.8 1.00e+00 1.00e+00f  1
  37  1.6740384e+04 0.00e+00 1.62e+00  -1.0 6.63e-02   1.4 1.00e+00 1.00e+00f  1
  38  1.6593905e+04 0.00e+00 1.55e+00  -1.0 2.02e-01   0.9 1.00e+00 1.00e+00f  1
  39  1.6203316e+04 0.00e+00 1.59e+00  -1.0 6.19e-01   0.4 1.00e+00 1.00e+00f  1
iter    objective    inf_pr   inf_du lg(mu)  ||d||  lg(rg) alpha_du alpha_pr  ls
  40  1.5413129e+04 0.00e+00 1.97e+00  -1.0 2.04e+00  -0.1 1.00e+00 8.96e-01f  1
  41  1.5342853e+04 0.00e+00 1.97e+00  -1.0 1.77e+02    -  3.43e-03 1.01e-02f  1
  42  1.4598568e+04 0.00e+00 1.41e+00  -1.0 2.56e+00  -0.5 1.00e+00 4.10e-01f  1
  43  1.2552921e+04 0.00e+00 2.39e+00  -1.0 3.60e+01    -  2.62e-01 8.10e-02f  1
  44  1.2437997e+04 0.00e+00 4.82e+00  -1.0 8.97e+00  -0.1 7.02e-01 3.44e-02f  1
  45  1.1220509e+04 0.00e+00 4.86e+00  -1.0 2.25e+00   0.3 1.00e+00 8.54e-01f  1
  46  1.0692469e+04 0.00e+00 2.39e+00  -1.0 4.74e-01   0.7 1.00e+00 1.00e+00f  1
  47  9.3827819e+03 0.00e+00 8.11e-01  -1.0 4.51e-01   0.3 1.00e+00 1.00e+00f  1
  48  5.8581649e+03 0.00e+00 1.04e+00  -1.7 1.83e+00  -0.2 8.92e-01 8.21e-01f  1
  49  5.0776717e+03 0.00e+00 1.01e+00  -1.7 4.63e+00  -0.7 4.91e-01 2.75e-01f  1
iter    objective    inf_pr   inf_du lg(mu)  ||d||  lg(rg) alpha_du alpha_pr  ls
  50  4.9459537e+03 0.00e+00 9.48e-01  -1.7 2.52e+01  -1.2 2.12e-01 5.74e-02f  1
  51  4.9363192e+03 0.00e+00 9.44e-01  -1.7 6.85e+01  -1.7 4.44e-04 4.60e-03f  1
  52  4.2247201e+03 0.00e+00 6.61e-01  -1.7 1.21e+00  -0.3 1.00e+00 5.19e-01f  1
  53  3.7480015e+03 0.00e+00 5.80e-01  -1.7 4.60e-01   0.1 1.00e+00 1.00e+00f  1
  54  3.7459846e+03 0.00e+00 5.28e-01  -1.7 1.34e+00  -0.4 1.00e+00 3.96e-01f  1
  55  3.7450244e+03 0.00e+00 6.19e-01  -1.7 5.06e+00  -0.9 1.00e+00 8.22e-02f  1
  56  3.7392779e+03 0.00e+00 7.03e-01  -1.7 4.53e+00    -  1.00e+00 7.84e-01f  1
  57  3.7391013e+03 0.00e+00 2.25e+00  -1.7 1.07e+00  -0.4 8.44e-01 4.04e-01h  1
  58  3.7365804e+03 0.00e+00 2.67e+00  -1.7 2.05e-01   0.9 8.92e-01 1.00e+00f  1
  59  3.7361482e+03 0.00e+00 1.43e+00  -1.7 2.37e-01   0.4 1.00e+00 1.00e+00f  1
iter    objective    inf_pr   inf_du lg(mu)  ||d||  lg(rg) alpha_du alpha_pr  ls
  60  3.7350398e+03 0.00e+00 1.03e+00  -1.7 1.54e-01   0.9 1.00e+00 1.00e+00f  1
  61  3.7339342e+03 0.00e+00 1.14e+00  -1.7 4.83e-01   0.4 9.99e-01 1.00e+00f  1
  62  3.7328313e+03 0.00e+00 5.99e-01  -1.7 3.10e-01  -0.1 1.00e+00 1.00e+00f  1
  63  3.7325869e+03 0.00e+00 2.38e-01  -1.7 3.49e-01    -  1.00e+00 6.16e-01h  1
  64  3.7326189e+03 0.00e+00 2.87e-02  -1.7 8.82e-02    -  1.00e+00 1.00e+00f  1
  65  3.5706874e+03 0.00e+00 4.20e-02  -2.5 7.66e-02    -  1.00e+00 1.00e+00f  1
  66  3.5714062e+03 0.00e+00 1.64e+01  -2.5 1.10e+00  -0.6 1.00e+00 1.00e+00h  1
  67  3.5687239e+03 0.00e+00 1.54e+01  -2.5 3.59e+00  -0.2 5.49e-02 1.41e-01f  1
  68  3.5686227e+03 0.00e+00 1.52e+01  -2.5 1.08e+00    -  1.32e-01 1.08e-02h  1
  69  3.5684750e+03 0.00e+00 1.44e+01  -2.5 7.05e+00    -  7.65e-04 2.88e-02f  1
iter    objective    inf_pr   inf_du lg(mu)  ||d||  lg(rg) alpha_du alpha_pr  ls
  70  3.5652320e+03 0.00e+00 2.45e+01  -2.5 1.21e+00   0.3 6.77e-02 1.00e+00f  1
  71  3.5650443e+03 0.00e+00 2.03e+01  -2.5 1.93e+00    -  7.35e-01 1.71e-01f  1
  72  3.5650034e+03 0.00e+00 1.80e+01  -2.5 8.04e-02   0.7 1.00e+00 1.16e-01h  1
  73  3.5647700e+03 0.00e+00 8.93e+00  -2.5 1.28e-01    -  1.00e+00 5.41e-01f  1
  74  3.5641340e+03 0.00e+00 2.31e+00  -2.5 5.38e-01    -  1.00e+00 1.00e+00f  1
  75  3.5636777e+03 0.00e+00 1.41e+00  -2.5 2.12e+00    -  1.00e+00 3.84e-01f  1
  76  3.5635279e+03 0.00e+00 8.48e-01  -2.5 2.08e-01    -  1.00e+00 4.25e-01h  1
  77  3.5633130e+03 0.00e+00 9.00e-02  -2.5 1.31e-01    -  1.00e+00 1.00e+00f  1
  78  3.5633110e+03 0.00e+00 1.39e-04  -2.5 1.18e-03    -  1.00e+00 1.00e+00h  1
  79  3.5367750e+03 0.00e+00 1.73e-04  -3.8 1.31e-02    -  1.00e+00 1.00e+00f  1
iter    objective    inf_pr   inf_du lg(mu)  ||d||  lg(rg) alpha_du alpha_pr  ls
  80  3.5351220e+03 0.00e+00 1.77e-06  -5.7 1.31e-03    -  1.00e+00 1.00e+00f  1
  81  3.5351030e+03 0.00e+00 2.28e-10  -8.6 1.62e-05    -  1.00e+00 1.00e+00h  1

Number of Iterations....: 81

                                   (scaled)                 (unscaled)
Objective...............:   3.5351029546162122e+03    3.5351029546162122e+03
Dual infeasibility......:   2.2796275978009817e-10    2.2796275978009817e-10
Constraint violation....:   0.0000000000000000e+00    0.0000000000000000e+00
Complementarity.........:   2.6833026309271056e-09    2.6833026309271056e-09
Overall NLP error.......:   2.6833026309271056e-09    2.6833026309271056e-09


Number of objective function evaluations             = 105
Number of objective gradient evaluations             = 82
Number of equality constraint evaluations            = 0
Number of inequality constraint evaluations          = 105
Number of equality constraint Jacobian evaluations   = 0
Number of inequality constraint Jacobian evaluations = 82
Number of Lagrangian Hessian evaluations             = 81
Total CPU secs in IPOPT (w/o function evaluations)   =      1.333
Total CPU secs in NLP function evaluations           =      0.747

EXIT: Optimal Solution Found.
Note: The following floating-point exceptions are signalling: IEEE_INVALID_FLAG IEEE_DIVIDE_BY_ZERO

************************ CUTEst statistics ************************


 Package used            :  IPOPT
 Problem                 :  LUKVLI10  
 # variables             =           10000
 # constraints           =            9998
 # objective functions   =        0.1880000E+03
 # objective gradients   =        0.8300000E+02
 # objective Hessians    =        0.8200000E+02
 # Hessian-vector prdct  =        0.0000000E+00
 # constraints functions =        0.1890000E+03
 # constraints gradients =        0.8400000E+02
 # constraints Hessians  =        0.8200000E+02
 Exit code               =               0
 Final f                 =   0.3535103E+04
 Set up time             =            0.30 seconds
 Solve time              =            2.10 seconds


******************************************************************

System Time =       2.0980000496 s.
